set VV := 0 1 2 3 4 5 6 7 8 9 10 ;
set VS := 0 1 2 3 4 5 6 7 8 9 10 11 12 13 14 15 16 17 18 19 20 21 22 23 24 25 ;
param cv := 
0 10
1 17
2 16
3 10
4 14
5 11
6 11
7 18
8 16
9 23
10 15
;
param cs := 
0 24
1 31
2 25
3 30
4 27
5 32
6 27
7 30
8 32
9 33
10 32
11 25
12 28
13 21
14 33
15 25
16 28
17 29
18 34
19 24
20 33
21 26
22 36
23 23
24 40
25 26
;
param bv:	 0 1 2 3 4 5 6 7 8 9 10 := 
		0 0 0 0 0 0 0 21 0 0 0 0 
		1 0 0 0 0 0 0 0 0 17 25 0 
		2 0 0 0 0 10 0 0 0 0 0 18 
		3 0 0 0 0 0 20 0 0 0 0 0 
		4 0 0 0 0 0 0 0 24 12 0 0 
		5 0 0 0 0 0 0 0 20 0 0 0 
		6 0 0 0 0 0 0 0 0 23 0 0 
		7 0 0 0 0 0 0 0 0 0 0 0 
		8 0 0 0 0 0 0 0 0 0 0 0 
		9 0 0 0 0 0 0 0 0 0 0 0 
		10 0 0 0 0 0 0 0 0 0 0 0 
;
param bs:	 0 1 2 3 4 5 6 7 8 9 10 11 12 13 14 15 16 17 18 19 20 21 22 23 24 25 := 
		0 0 0 0 27 0 0 0 0 0 0 0 0 0 0 35 0 0 25 0 0 0 0 0 0 0 0 
		1 0 0 0 0 25 27 0 0 0 0 0 37 0 0 24 0 0 0 0 0 0 0 0 0 0 0 
		2 0 0 0 24 0 0 0 38 0 0 0 0 0 28 0 40 0 0 0 36 0 0 0 0 0 0 
		3 27 0 24 0 0 0 0 0 0 0 0 0 0 0 0 0 0 0 0 0 0 0 22 0 0 0 
		4 0 25 0 0 0 0 0 0 0 0 36 0 0 0 0 0 0 0 21 0 28 37 0 0 0 0 
		5 0 27 0 0 0 0 0 0 0 0 28 0 0 0 0 0 36 0 0 0 0 0 0 0 23 0 
		6 0 0 0 0 0 0 0 21 0 0 0 0 0 0 0 0 0 0 0 0 0 0 29 0 0 0 
		7 0 0 38 0 0 0 21 0 39 0 0 0 0 35 0 0 0 34 0 0 0 0 0 0 0 0 
		8 0 0 0 0 0 0 0 39 0 0 0 0 0 0 0 0 0 0 0 0 37 0 35 0 0 0 
		9 0 0 0 0 0 0 0 0 0 0 0 0 0 34 0 0 0 0 0 0 25 0 0 0 0 33 
		10 0 0 0 0 36 28 0 0 0 0 0 0 0 0 0 0 0 0 0 0 0 27 0 0 0 0 
		11 0 37 0 0 0 0 0 0 0 0 0 0 0 0 0 0 0 0 0 0 28 0 0 0 0 29 
		12 0 0 0 0 0 0 0 0 0 0 0 0 0 27 0 0 0 0 34 0 0 0 31 0 0 25 
		13 0 0 28 0 0 0 0 35 0 34 0 0 27 0 0 23 0 0 0 0 0 0 0 0 32 0 
		14 35 24 0 0 0 0 0 0 0 0 0 0 0 0 0 0 25 39 0 0 0 0 0 0 28 0 
		15 0 0 40 0 0 0 0 0 0 0 0 0 0 23 0 0 0 0 0 0 0 0 38 0 0 0 
		16 0 0 0 0 0 36 0 0 0 0 0 0 0 0 25 0 0 0 27 0 0 0 0 35 0 24 
		17 25 0 0 0 0 0 0 34 0 0 0 0 0 0 39 0 0 0 0 0 0 0 0 40 0 0 
		18 0 0 0 0 21 0 0 0 0 0 0 0 34 0 0 0 27 0 0 36 31 0 0 0 0 0 
		19 0 0 36 0 0 0 0 0 0 0 0 0 0 0 0 0 0 0 36 0 0 0 0 0 0 0 
		20 0 0 0 0 28 0 0 0 37 25 0 28 0 0 0 0 0 0 31 0 0 0 0 0 24 0 
		21 0 0 0 0 37 0 0 0 0 0 27 0 0 0 0 0 0 0 0 0 0 0 0 0 0 0 
		22 0 0 0 22 0 0 29 0 35 0 0 0 31 0 0 38 0 0 0 0 0 0 0 0 0 25 
		23 0 0 0 0 0 0 0 0 0 0 0 0 0 0 0 0 35 40 0 0 0 0 0 0 38 0 
		24 0 0 0 0 0 23 0 0 0 0 0 0 0 32 28 0 0 0 0 0 24 0 0 38 0 0 
		25 0 0 0 0 0 0 0 0 0 33 0 29 25 0 0 0 24 0 0 0 0 0 25 0 0 0 
;
